(set-option :produce-models true)
(declare-fun compra_0_0 () Int)
(declare-fun almacen0_0 () Int)
(declare-fun refina_0_0 () Int)
(declare-fun compra_0_1 () Int)
(declare-fun almacen0_1 () Int)
(declare-fun refina_0_1 () Int)
(declare-fun compra_0_2 () Int)
(declare-fun almacen0_2 () Int)
(declare-fun refina_0_2 () Int)
(declare-fun compra_0_3 () Int)
(declare-fun almacen0_3 () Int)
(declare-fun refina_0_3 () Int)
(declare-fun compra_0_4 () Int)
(declare-fun almacen0_4 () Int)
(declare-fun refina_0_4 () Int)
(declare-fun compra_1_0 () Int)
(declare-fun almacen1_0 () Int)
(declare-fun refina_1_0 () Int)
(declare-fun compra_1_1 () Int)
(declare-fun almacen1_1 () Int)
(declare-fun refina_1_1 () Int)
(declare-fun compra_1_2 () Int)
(declare-fun almacen1_2 () Int)
(declare-fun refina_1_2 () Int)
(declare-fun compra_1_3 () Int)
(declare-fun almacen1_3 () Int)
(declare-fun refina_1_3 () Int)
(declare-fun compra_1_4 () Int)
(declare-fun almacen1_4 () Int)
(declare-fun refina_1_4 () Int)
(declare-fun compra_2_0 () Int)
(declare-fun almacen2_0 () Int)
(declare-fun refina_2_0 () Int)
(declare-fun compra_2_1 () Int)
(declare-fun almacen2_1 () Int)
(declare-fun refina_2_1 () Int)
(declare-fun compra_2_2 () Int)
(declare-fun almacen2_2 () Int)
(declare-fun refina_2_2 () Int)
(declare-fun compra_2_3 () Int)
(declare-fun almacen2_3 () Int)
(declare-fun refina_2_3 () Int)
(declare-fun compra_2_4 () Int)
(declare-fun almacen2_4 () Int)
(declare-fun refina_2_4 () Int)
(declare-fun compra_3_0 () Int)
(declare-fun almacen3_0 () Int)
(declare-fun refina_3_0 () Int)
(declare-fun compra_3_1 () Int)
(declare-fun almacen3_1 () Int)
(declare-fun refina_3_1 () Int)
(declare-fun compra_3_2 () Int)
(declare-fun almacen3_2 () Int)
(declare-fun refina_3_2 () Int)
(declare-fun compra_3_3 () Int)
(declare-fun almacen3_3 () Int)
(declare-fun refina_3_3 () Int)
(declare-fun compra_3_4 () Int)
(declare-fun almacen3_4 () Int)
(declare-fun refina_3_4 () Int)
(declare-fun compra_4_0 () Int)
(declare-fun almacen4_0 () Int)
(declare-fun refina_4_0 () Int)
(declare-fun compra_4_1 () Int)
(declare-fun almacen4_1 () Int)
(declare-fun refina_4_1 () Int)
(declare-fun compra_4_2 () Int)
(declare-fun almacen4_2 () Int)
(declare-fun refina_4_2 () Int)
(declare-fun compra_4_3 () Int)
(declare-fun almacen4_3 () Int)
(declare-fun refina_4_3 () Int)
(declare-fun compra_4_4 () Int)
(declare-fun almacen4_4 () Int)
(declare-fun refina_4_4 () Int)
(declare-fun compra_5_0 () Int)
(declare-fun almacen5_0 () Int)
(declare-fun refina_5_0 () Int)
(declare-fun compra_5_1 () Int)
(declare-fun almacen5_1 () Int)
(declare-fun refina_5_1 () Int)
(declare-fun compra_5_2 () Int)
(declare-fun almacen5_2 () Int)
(declare-fun refina_5_2 () Int)
(declare-fun compra_5_3 () Int)
(declare-fun almacen5_3 () Int)
(declare-fun refina_5_3 () Int)
(declare-fun compra_5_4 () Int)
(declare-fun almacen5_4 () Int)
(declare-fun refina_5_4 () Int)
(assert (<= 0 compra_0_0 ) )
(assert (>= 1000 compra_0_0 ) )
(assert (<= 0 almacen0_0 ) )
(assert (>= 1000 almacen0_0 ) )
(assert (<= 0 refina_0_0 ) )
(assert (>= 1000 refina_0_0 ) )
(assert (<= 0 compra_0_1 ) )
(assert (>= 1000 compra_0_1 ) )
(assert (<= 0 almacen0_1 ) )
(assert (>= 1000 almacen0_1 ) )
(assert (<= 0 refina_0_1 ) )
(assert (>= 1000 refina_0_1 ) )
(assert (<= 0 compra_0_2 ) )
(assert (>= 1000 compra_0_2 ) )
(assert (<= 0 almacen0_2 ) )
(assert (>= 1000 almacen0_2 ) )
(assert (<= 0 refina_0_2 ) )
(assert (>= 1000 refina_0_2 ) )
(assert (<= 0 compra_0_3 ) )
(assert (>= 1000 compra_0_3 ) )
(assert (<= 0 almacen0_3 ) )
(assert (>= 1000 almacen0_3 ) )
(assert (<= 0 refina_0_3 ) )
(assert (>= 1000 refina_0_3 ) )
(assert (<= 0 compra_0_4 ) )
(assert (>= 1000 compra_0_4 ) )
(assert (<= 0 almacen0_4 ) )
(assert (>= 1000 almacen0_4 ) )
(assert (<= 0 refina_0_4 ) )
(assert (>= 1000 refina_0_4 ) )
(assert (<= 0 compra_1_0 ) )
(assert (>= 1000 compra_1_0 ) )
(assert (<= 0 almacen1_0 ) )
(assert (>= 1000 almacen1_0 ) )
(assert (<= 0 refina_1_0 ) )
(assert (>= 1000 refina_1_0 ) )
(assert (<= 0 compra_1_1 ) )
(assert (>= 1000 compra_1_1 ) )
(assert (<= 0 almacen1_1 ) )
(assert (>= 1000 almacen1_1 ) )
(assert (<= 0 refina_1_1 ) )
(assert (>= 1000 refina_1_1 ) )
(assert (<= 0 compra_1_2 ) )
(assert (>= 1000 compra_1_2 ) )
(assert (<= 0 almacen1_2 ) )
(assert (>= 1000 almacen1_2 ) )
(assert (<= 0 refina_1_2 ) )
(assert (>= 1000 refina_1_2 ) )
(assert (<= 0 compra_1_3 ) )
(assert (>= 1000 compra_1_3 ) )
(assert (<= 0 almacen1_3 ) )
(assert (>= 1000 almacen1_3 ) )
(assert (<= 0 refina_1_3 ) )
(assert (>= 1000 refina_1_3 ) )
(assert (<= 0 compra_1_4 ) )
(assert (>= 1000 compra_1_4 ) )
(assert (<= 0 almacen1_4 ) )
(assert (>= 1000 almacen1_4 ) )
(assert (<= 0 refina_1_4 ) )
(assert (>= 1000 refina_1_4 ) )
(assert (<= 0 compra_2_0 ) )
(assert (>= 1000 compra_2_0 ) )
(assert (<= 0 almacen2_0 ) )
(assert (>= 1000 almacen2_0 ) )
(assert (<= 0 refina_2_0 ) )
(assert (>= 1000 refina_2_0 ) )
(assert (<= 0 compra_2_1 ) )
(assert (>= 1000 compra_2_1 ) )
(assert (<= 0 almacen2_1 ) )
(assert (>= 1000 almacen2_1 ) )
(assert (<= 0 refina_2_1 ) )
(assert (>= 1000 refina_2_1 ) )
(assert (<= 0 compra_2_2 ) )
(assert (>= 1000 compra_2_2 ) )
(assert (<= 0 almacen2_2 ) )
(assert (>= 1000 almacen2_2 ) )
(assert (<= 0 refina_2_2 ) )
(assert (>= 1000 refina_2_2 ) )
(assert (<= 0 compra_2_3 ) )
(assert (>= 1000 compra_2_3 ) )
(assert (<= 0 almacen2_3 ) )
(assert (>= 1000 almacen2_3 ) )
(assert (<= 0 refina_2_3 ) )
(assert (>= 1000 refina_2_3 ) )
(assert (<= 0 compra_2_4 ) )
(assert (>= 1000 compra_2_4 ) )
(assert (<= 0 almacen2_4 ) )
(assert (>= 1000 almacen2_4 ) )
(assert (<= 0 refina_2_4 ) )
(assert (>= 1000 refina_2_4 ) )
(assert (<= 0 compra_3_0 ) )
(assert (>= 1000 compra_3_0 ) )
(assert (<= 0 almacen3_0 ) )
(assert (>= 1000 almacen3_0 ) )
(assert (<= 0 refina_3_0 ) )
(assert (>= 1000 refina_3_0 ) )
(assert (<= 0 compra_3_1 ) )
(assert (>= 1000 compra_3_1 ) )
(assert (<= 0 almacen3_1 ) )
(assert (>= 1000 almacen3_1 ) )
(assert (<= 0 refina_3_1 ) )
(assert (>= 1000 refina_3_1 ) )
(assert (<= 0 compra_3_2 ) )
(assert (>= 1000 compra_3_2 ) )
(assert (<= 0 almacen3_2 ) )
(assert (>= 1000 almacen3_2 ) )
(assert (<= 0 refina_3_2 ) )
(assert (>= 1000 refina_3_2 ) )
(assert (<= 0 compra_3_3 ) )
(assert (>= 1000 compra_3_3 ) )
(assert (<= 0 almacen3_3 ) )
(assert (>= 1000 almacen3_3 ) )
(assert (<= 0 refina_3_3 ) )
(assert (>= 1000 refina_3_3 ) )
(assert (<= 0 compra_3_4 ) )
(assert (>= 1000 compra_3_4 ) )
(assert (<= 0 almacen3_4 ) )
(assert (>= 1000 almacen3_4 ) )
(assert (<= 0 refina_3_4 ) )
(assert (>= 1000 refina_3_4 ) )
(assert (<= 0 compra_4_0 ) )
(assert (>= 1000 compra_4_0 ) )
(assert (<= 0 almacen4_0 ) )
(assert (>= 1000 almacen4_0 ) )
(assert (<= 0 refina_4_0 ) )
(assert (>= 1000 refina_4_0 ) )
(assert (<= 0 compra_4_1 ) )
(assert (>= 1000 compra_4_1 ) )
(assert (<= 0 almacen4_1 ) )
(assert (>= 1000 almacen4_1 ) )
(assert (<= 0 refina_4_1 ) )
(assert (>= 1000 refina_4_1 ) )
(assert (<= 0 compra_4_2 ) )
(assert (>= 1000 compra_4_2 ) )
(assert (<= 0 almacen4_2 ) )
(assert (>= 1000 almacen4_2 ) )
(assert (<= 0 refina_4_2 ) )
(assert (>= 1000 refina_4_2 ) )
(assert (<= 0 compra_4_3 ) )
(assert (>= 1000 compra_4_3 ) )
(assert (<= 0 almacen4_3 ) )
(assert (>= 1000 almacen4_3 ) )
(assert (<= 0 refina_4_3 ) )
(assert (>= 1000 refina_4_3 ) )
(assert (<= 0 compra_4_4 ) )
(assert (>= 1000 compra_4_4 ) )
(assert (<= 0 almacen4_4 ) )
(assert (>= 1000 almacen4_4 ) )
(assert (<= 0 refina_4_4 ) )
(assert (>= 1000 refina_4_4 ) )
(assert (<= 0 compra_5_0 ) )
(assert (>= 1000 compra_5_0 ) )
(assert (<= 0 almacen5_0 ) )
(assert (>= 1000 almacen5_0 ) )
(assert (<= 0 refina_5_0 ) )
(assert (>= 1000 refina_5_0 ) )
(assert (<= 0 compra_5_1 ) )
(assert (>= 1000 compra_5_1 ) )
(assert (<= 0 almacen5_1 ) )
(assert (>= 1000 almacen5_1 ) )
(assert (<= 0 refina_5_1 ) )
(assert (>= 1000 refina_5_1 ) )
(assert (<= 0 compra_5_2 ) )
(assert (>= 1000 compra_5_2 ) )
(assert (<= 0 almacen5_2 ) )
(assert (>= 1000 almacen5_2 ) )
(assert (<= 0 refina_5_2 ) )
(assert (>= 1000 refina_5_2 ) )
(assert (<= 0 compra_5_3 ) )
(assert (>= 1000 compra_5_3 ) )
(assert (<= 0 almacen5_3 ) )
(assert (>= 1000 almacen5_3 ) )
(assert (<= 0 refina_5_3 ) )
(assert (>= 1000 refina_5_3 ) )
(assert (<= 0 compra_5_4 ) )
(assert (>= 1000 compra_5_4 ) )
(assert (<= 0 almacen5_4 ) )
(assert (>= 1000 almacen5_4 ) )
(assert (<= 0 refina_5_4 ) )
(assert (>= 1000 refina_5_4 ) )
(assert (<= (+ refina_0_1 refina_0_0 ) 200 ) )
(assert (<= (+ refina_1_1 refina_1_0 ) 200 ) )
(assert (<= (+ refina_2_1 refina_2_0 ) 200 ) )
(assert (<= (+ refina_3_1 refina_3_0 ) 200 ) )
(assert (<= (+ refina_4_1 refina_4_0 ) 200 ) )
(assert (<= (+ refina_5_1 refina_5_0 ) 200 ) )
(assert (<= (+ refina_0_4 (+ refina_0_3 refina_0_2 ) ) 250 ) )
(assert (<= (+ refina_1_4 (+ refina_1_3 refina_1_2 ) ) 250 ) )
(assert (<= (+ refina_2_4 (+ refina_2_3 refina_2_2 ) ) 250 ) )
(assert (<= (+ refina_3_4 (+ refina_3_3 refina_3_2 ) ) 250 ) )
(assert (<= (+ refina_4_4 (+ refina_4_3 refina_4_2 ) ) 250 ) )
(assert (<= (+ refina_5_4 (+ refina_5_3 refina_5_2 ) ) 250 ) )
(assert (and (<= refina_0_0 almacen0_0 ) (<= almacen0_0 1000 ) ) )
(assert (and (<= refina_0_1 almacen0_1 ) (<= almacen0_1 1000 ) ) )
(assert (and (<= refina_0_2 almacen0_2 ) (<= almacen0_2 1000 ) ) )
(assert (and (<= refina_0_3 almacen0_3 ) (<= almacen0_3 1000 ) ) )
(assert (and (<= refina_0_4 almacen0_4 ) (<= almacen0_4 1000 ) ) )
(assert (and (<= refina_1_0 almacen1_0 ) (<= almacen1_0 1000 ) ) )
(assert (and (<= refina_1_1 almacen1_1 ) (<= almacen1_1 1000 ) ) )
(assert (and (<= refina_1_2 almacen1_2 ) (<= almacen1_2 1000 ) ) )
(assert (and (<= refina_1_3 almacen1_3 ) (<= almacen1_3 1000 ) ) )
(assert (and (<= refina_1_4 almacen1_4 ) (<= almacen1_4 1000 ) ) )
(assert (and (<= refina_2_0 almacen2_0 ) (<= almacen2_0 1000 ) ) )
(assert (and (<= refina_2_1 almacen2_1 ) (<= almacen2_1 1000 ) ) )
(assert (and (<= refina_2_2 almacen2_2 ) (<= almacen2_2 1000 ) ) )
(assert (and (<= refina_2_3 almacen2_3 ) (<= almacen2_3 1000 ) ) )
(assert (and (<= refina_2_4 almacen2_4 ) (<= almacen2_4 1000 ) ) )
(assert (and (<= refina_3_0 almacen3_0 ) (<= almacen3_0 1000 ) ) )
(assert (and (<= refina_3_1 almacen3_1 ) (<= almacen3_1 1000 ) ) )
(assert (and (<= refina_3_2 almacen3_2 ) (<= almacen3_2 1000 ) ) )
(assert (and (<= refina_3_3 almacen3_3 ) (<= almacen3_3 1000 ) ) )
(assert (and (<= refina_3_4 almacen3_4 ) (<= almacen3_4 1000 ) ) )
(assert (and (<= refina_4_0 almacen4_0 ) (<= almacen4_0 1000 ) ) )
(assert (and (<= refina_4_1 almacen4_1 ) (<= almacen4_1 1000 ) ) )
(assert (and (<= refina_4_2 almacen4_2 ) (<= almacen4_2 1000 ) ) )
(assert (and (<= refina_4_3 almacen4_3 ) (<= almacen4_3 1000 ) ) )
(assert (and (<= refina_4_4 almacen4_4 ) (<= almacen4_4 1000 ) ) )
(assert (and (<= refina_5_0 almacen5_0 ) (<= almacen5_0 1000 ) ) )
(assert (and (<= refina_5_1 almacen5_1 ) (<= almacen5_1 1000 ) ) )
(assert (and (<= refina_5_2 almacen5_2 ) (<= almacen5_2 1000 ) ) )
(assert (and (<= refina_5_3 almacen5_3 ) (<= almacen5_3 1000 ) ) )
(assert (and (<= refina_5_4 almacen5_4 ) (<= almacen5_4 1000 ) ) )
(assert (= almacen1_0 (+ compra_1_0 (- 200 refina_1_0 ) ) ) )
(assert (= almacen1_1 (+ compra_1_1 (- 200 refina_1_1 ) ) ) )
(assert (= almacen1_2 (+ compra_1_2 (- 200 refina_1_2 ) ) ) )
(assert (= almacen1_3 (+ compra_1_3 (- 200 refina_1_3 ) ) ) )
(assert (= almacen1_4 (+ compra_1_4 (- 200 refina_1_4 ) ) ) )
(assert (= almacen1_0 (+ compra_1_0 (- almacen0_0 refina_1_0 ) ) ) )
(assert (= almacen1_1 (+ compra_1_1 (- almacen0_1 refina_1_1 ) ) ) )
(assert (= almacen1_2 (+ compra_1_2 (- almacen0_2 refina_1_2 ) ) ) )
(assert (= almacen1_3 (+ compra_1_3 (- almacen0_3 refina_1_3 ) ) ) )
(assert (= almacen1_4 (+ compra_1_4 (- almacen0_4 refina_1_4 ) ) ) )
(assert (= almacen2_0 (+ compra_2_0 (- almacen1_0 refina_1_0 ) ) ) )
(assert (= almacen2_1 (+ compra_2_1 (- almacen1_1 refina_1_1 ) ) ) )
(assert (= almacen2_2 (+ compra_2_2 (- almacen1_2 refina_1_2 ) ) ) )
(assert (= almacen2_3 (+ compra_2_3 (- almacen1_3 refina_1_3 ) ) ) )
(assert (= almacen2_4 (+ compra_2_4 (- almacen1_4 refina_1_4 ) ) ) )
(assert (= almacen3_0 (+ compra_3_0 (- almacen2_0 refina_1_0 ) ) ) )
(assert (= almacen3_1 (+ compra_3_1 (- almacen2_1 refina_1_1 ) ) ) )
(assert (= almacen3_2 (+ compra_3_2 (- almacen2_2 refina_1_2 ) ) ) )
(assert (= almacen3_3 (+ compra_3_3 (- almacen2_3 refina_1_3 ) ) ) )
(assert (= almacen3_4 (+ compra_3_4 (- almacen2_4 refina_1_4 ) ) ) )
(assert (= almacen4_0 (+ compra_4_0 (- almacen3_0 refina_1_0 ) ) ) )
(assert (= almacen4_1 (+ compra_4_1 (- almacen3_1 refina_1_1 ) ) ) )
(assert (= almacen4_2 (+ compra_4_2 (- almacen3_2 refina_1_2 ) ) ) )
(assert (= almacen4_3 (+ compra_4_3 (- almacen3_3 refina_1_3 ) ) ) )
(assert (= almacen4_4 (+ compra_4_4 (- almacen3_4 refina_1_4 ) ) ) )
(assert (= almacen5_0 (+ compra_5_0 (- almacen4_0 refina_1_0 ) ) ) )
(assert (= almacen5_1 (+ compra_5_1 (- almacen4_1 refina_1_1 ) ) ) )
(assert (= almacen5_2 (+ compra_5_2 (- almacen4_2 refina_1_2 ) ) ) )
(assert (= almacen5_3 (+ compra_5_3 (- almacen4_3 refina_1_3 ) ) ) )
(assert (= almacen5_4 (+ compra_5_4 (- almacen4_4 refina_1_4 ) ) ) )
(assert (= 200 almacen5_0 ) )
(assert (= 200 almacen5_1 ) )
(assert (= 200 almacen5_2 ) )
(assert (= 200 almacen5_3 ) )
(assert (= 200 almacen5_4 ) )
(assert (>= (+ (* refina_0_4 5.0 ) (+ (* refina_0_3 4.2 ) (+ (* refina_0_2 2.0 ) (+ (* refina_0_1 6.1 ) (* refina_0_0 8.8 ) ) ) ) ) (* 3 (+ refina_0_4 (+ refina_0_3 (+ refina_0_2 (+ refina_0_1 refina_0_0 ) ) ) ) ) ) )
(assert (<= (* refina_0_0 8.8 ) (* 6 refina_0_0 ) ) )
(assert (>= (+ (* refina_1_4 5.0 ) (+ (* refina_1_3 4.2 ) (+ (* refina_1_2 2.0 ) (+ (* refina_1_1 6.1 ) (* refina_1_0 8.8 ) ) ) ) ) (* 3 (+ refina_1_4 (+ refina_1_3 (+ refina_1_2 (+ refina_1_1 refina_1_0 ) ) ) ) ) ) )
(assert (<= (* refina_1_0 8.8 ) (* 6 refina_1_0 ) ) )
(assert (>= (+ (* refina_2_4 5.0 ) (+ (* refina_2_3 4.2 ) (+ (* refina_2_2 2.0 ) (+ (* refina_2_1 6.1 ) (* refina_2_0 8.8 ) ) ) ) ) (* 3 (+ refina_2_4 (+ refina_2_3 (+ refina_2_2 (+ refina_2_1 refina_2_0 ) ) ) ) ) ) )
(assert (<= (* refina_2_0 8.8 ) (* 6 refina_2_0 ) ) )
(assert (>= (+ (* refina_3_4 5.0 ) (+ (* refina_3_3 4.2 ) (+ (* refina_3_2 2.0 ) (+ (* refina_3_1 6.1 ) (* refina_3_0 8.8 ) ) ) ) ) (* 3 (+ refina_3_4 (+ refina_3_3 (+ refina_3_2 (+ refina_3_1 refina_3_0 ) ) ) ) ) ) )
(assert (<= (* refina_3_0 8.8 ) (* 6 refina_3_0 ) ) )
(assert (>= (+ (* refina_4_4 5.0 ) (+ (* refina_4_3 4.2 ) (+ (* refina_4_2 2.0 ) (+ (* refina_4_1 6.1 ) (* refina_4_0 8.8 ) ) ) ) ) (* 3 (+ refina_4_4 (+ refina_4_3 (+ refina_4_2 (+ refina_4_1 refina_4_0 ) ) ) ) ) ) )
(assert (<= (* refina_4_0 8.8 ) (* 6 refina_4_0 ) ) )
(assert (>= (+ (* refina_5_4 5.0 ) (+ (* refina_5_3 4.2 ) (+ (* refina_5_2 2.0 ) (+ (* refina_5_1 6.1 ) (* refina_5_0 8.8 ) ) ) ) ) (* 3 (+ refina_5_4 (+ refina_5_3 (+ refina_5_2 (+ refina_5_1 refina_5_0 ) ) ) ) ) ) )
(assert (<= (* refina_5_0 8.8 ) (* 6 refina_5_0 ) ) )
(assert (>= (- (+ (* refina_0_4 400 ) (+ (* refina_0_3 400 ) (+ (* refina_0_2 400 ) (+ (* refina_0_1 400 ) (* refina_0_0 400 ) ) ) ) ) (+ (+ (* almacen0_4 5 ) (* compra_0_4 115 ) ) (+ (+ (* almacen0_3 5 ) (* compra_0_3 110 ) ) (+ (+ (* almacen0_2 5 ) (* compra_0_2 130 ) ) (+ (+ (* almacen0_1 5 ) (* compra_0_1 120 ) ) (+ (* almacen0_0 5 ) (* compra_0_0 110 ) ) ) ) ) ) ) 7000 ) )
(assert (>= (- (+ (* refina_1_4 400 ) (+ (* refina_1_3 400 ) (+ (* refina_1_2 400 ) (+ (* refina_1_1 400 ) (* refina_1_0 400 ) ) ) ) ) (+ (+ (* almacen1_4 5 ) (* compra_1_4 115 ) ) (+ (+ (* almacen1_3 5 ) (* compra_1_3 90 ) ) (+ (+ (* almacen1_2 5 ) (* compra_1_2 110 ) ) (+ (+ (* almacen1_1 5 ) (* compra_1_1 130 ) ) (+ (* almacen1_0 5 ) (* compra_1_0 130 ) ) ) ) ) ) ) 7000 ) )
(assert (>= (- (+ (* refina_2_4 400 ) (+ (* refina_2_3 400 ) (+ (* refina_2_2 400 ) (+ (* refina_2_1 400 ) (* refina_2_0 400 ) ) ) ) ) (+ (+ (* almacen2_4 5 ) (* compra_2_4 95 ) ) (+ (+ (* almacen2_3 5 ) (* compra_2_3 100 ) ) (+ (+ (* almacen2_2 5 ) (* compra_2_2 130 ) ) (+ (+ (* almacen2_1 5 ) (* compra_2_1 140 ) ) (+ (* almacen2_0 5 ) (* compra_2_0 110 ) ) ) ) ) ) ) 7000 ) )
(assert (>= (- (+ (* refina_3_4 400 ) (+ (* refina_3_3 400 ) (+ (* refina_3_2 400 ) (+ (* refina_3_1 400 ) (* refina_3_0 400 ) ) ) ) ) (+ (+ (* almacen3_4 5 ) (* compra_3_4 125 ) ) (+ (+ (* almacen3_3 5 ) (* compra_3_3 120 ) ) (+ (+ (* almacen3_2 5 ) (* compra_3_2 120 ) ) (+ (+ (* almacen3_1 5 ) (* compra_3_1 110 ) ) (+ (* almacen3_0 5 ) (* compra_3_0 120 ) ) ) ) ) ) ) 7000 ) )
(assert (>= (- (+ (* refina_4_4 400 ) (+ (* refina_4_3 400 ) (+ (* refina_4_2 400 ) (+ (* refina_4_1 400 ) (* refina_4_0 400 ) ) ) ) ) (+ (+ (* almacen4_4 5 ) (* compra_4_4 105 ) ) (+ (+ (* almacen4_3 5 ) (* compra_4_3 110 ) ) (+ (+ (* almacen4_2 5 ) (* compra_4_2 150 ) ) (+ (+ (* almacen4_1 5 ) (* compra_4_1 120 ) ) (+ (* almacen4_0 5 ) (* compra_4_0 100 ) ) ) ) ) ) ) 7000 ) )
(assert (>= (- (+ (* refina_5_4 400 ) (+ (* refina_5_3 400 ) (+ (* refina_5_2 400 ) (+ (* refina_5_1 400 ) (* refina_5_0 400 ) ) ) ) ) (+ (+ (* almacen5_4 5 ) (* compra_5_4 135 ) ) (+ (+ (* almacen5_3 5 ) (* compra_5_3 80 ) ) (+ (+ (* almacen5_2 5 ) (* compra_5_2 140 ) ) (+ (+ (* almacen5_1 5 ) (* compra_5_1 100 ) ) (+ (* almacen5_0 5 ) (* compra_5_0 90 ) ) ) ) ) ) ) 7000 ) )
(check-sat)
(get-value (compra_0_0) )
(get-value (refina_0_0) )
(get-value (almacen0_0) )
(get-value (compra_0_1) )
(get-value (refina_0_1) )
(get-value (almacen0_1) )
(get-value (compra_0_2) )
(get-value (refina_0_2) )
(get-value (almacen0_2) )
(get-value (compra_0_3) )
(get-value (refina_0_3) )
(get-value (almacen0_3) )
(get-value (compra_0_4) )
(get-value (refina_0_4) )
(get-value (almacen0_4) )
(get-value (compra_1_0) )
(get-value (refina_1_0) )
(get-value (almacen1_0) )
(get-value (compra_1_1) )
(get-value (refina_1_1) )
(get-value (almacen1_1) )
(get-value (compra_1_2) )
(get-value (refina_1_2) )
(get-value (almacen1_2) )
(get-value (compra_1_3) )
(get-value (refina_1_3) )
(get-value (almacen1_3) )
(get-value (compra_1_4) )
(get-value (refina_1_4) )
(get-value (almacen1_4) )
(get-value (compra_2_0) )
(get-value (refina_2_0) )
(get-value (almacen2_0) )
(get-value (compra_2_1) )
(get-value (refina_2_1) )
(get-value (almacen2_1) )
(get-value (compra_2_2) )
(get-value (refina_2_2) )
(get-value (almacen2_2) )
(get-value (compra_2_3) )
(get-value (refina_2_3) )
(get-value (almacen2_3) )
(get-value (compra_2_4) )
(get-value (refina_2_4) )
(get-value (almacen2_4) )
(get-value (compra_3_0) )
(get-value (refina_3_0) )
(get-value (almacen3_0) )
(get-value (compra_3_1) )
(get-value (refina_3_1) )
(get-value (almacen3_1) )
(get-value (compra_3_2) )
(get-value (refina_3_2) )
(get-value (almacen3_2) )
(get-value (compra_3_3) )
(get-value (refina_3_3) )
(get-value (almacen3_3) )
(get-value (compra_3_4) )
(get-value (refina_3_4) )
(get-value (almacen3_4) )
(get-value (compra_4_0) )
(get-value (refina_4_0) )
(get-value (almacen4_0) )
(get-value (compra_4_1) )
(get-value (refina_4_1) )
(get-value (almacen4_1) )
(get-value (compra_4_2) )
(get-value (refina_4_2) )
(get-value (almacen4_2) )
(get-value (compra_4_3) )
(get-value (refina_4_3) )
(get-value (almacen4_3) )
(get-value (compra_4_4) )
(get-value (refina_4_4) )
(get-value (almacen4_4) )
(get-value (compra_5_0) )
(get-value (refina_5_0) )
(get-value (almacen5_0) )
(get-value (compra_5_1) )
(get-value (refina_5_1) )
(get-value (almacen5_1) )
(get-value (compra_5_2) )
(get-value (refina_5_2) )
(get-value (almacen5_2) )
(get-value (compra_5_3) )
(get-value (refina_5_3) )
(get-value (almacen5_3) )
(get-value (compra_5_4) )
(get-value (refina_5_4) )
(get-value (almacen5_4) )
